/benchmark/cnf/maxsat/evaluation/ms/MaxSAT06/RAMSEY/ram_k3_n4.ra0.cnf
o 0
c Best Solution=0
c NB_MONO= 4, NB_UNIT= 1, NB_BRANCHE= 3, NB_BACK= 1 
c Program terminated in 0.000 seconds.
o 0
s OPTIMUM FOUND
v 1 -2 3 4 5 6 
/benchmark/cnf/maxsat/evaluation/ms/MaxSAT06/RAMSEY/ram_k3_n14.ra0.cnf
/benchmark/cnf/maxsat/evaluation/ms/MaxSAT06/RAMSEY/ram_k3_n18.ra0.cnf
/benchmark/cnf/maxsat/evaluation/ms/MaxSAT06/RAMSEY/ram_k4_n16.ra0.cnf
o 15
o 14
o 13
o 12
o 11
o 10
o 9
o 8
o 7
o 6
o 5
o 4
o 3
o 2
o 1
o 0
c Best Solution=0
c NB_MONO= 282, NB_UNIT= 1, NB_BRANCHE= 9174, NB_BACK= 5650 
c Program terminated in 0.410 seconds.
o 0
s OPTIMUM FOUND
v -1 -2 3 4 5 6 -7 8 -9 -10 -11 -12 13 -14 15 -16 17 18 -19 -20 21 -22 -23 24 -25 26 27 28 29 30 31 -32 -33 34 35 36 -37 38 -39 -40 41 -42 43 -44 45 46 47 -48 -49 -50 51 -52 -53 -54 -55 -56 -57 -58 -59 60 61 -62 63 -64 -65 66 67 68 -69 70 71 -72 73 74 -75 76 -77 78 79 -80 81 -82 -83 -84 -85 86 -87 -88 -89 90 91 -92 -93 -94 95 96 -97 98 99 -100 101 102 103 -104 105 106 107 -108 109 -110 111 112 -113 -114 -115 -116 117 -118 119 120 
/benchmark/cnf/maxsat/evaluation/ms/MaxSAT06/RAMSEY/ram_k3_n9.ra0.cnf
o 4
o 3
o 2
o 1
c Best Solution=1
c NB_MONO= 533, NB_UNIT= 1, NB_BRANCHE= 14691, NB_BACK= 9096 
c Program terminated in 0.080 seconds.
o 1
s OPTIMUM FOUND
v -1 -2 3 4 5 6 7 -8 9 -10 11 12 -13 14 15 -16 -17 -18 19 20 21 22 23 24 -25 26 27 -28 29 -30 -31 -32 33 34 35 -36 
/benchmark/cnf/maxsat/evaluation/ms/MaxSAT06/RAMSEY/ram_k5_n9.ra0.cnf
o 0
c Best Solution=0
c NB_MONO= 22, NB_UNIT= 1, NB_BRANCHE= 15, NB_BACK= 1 
c Program terminated in 0.000 seconds.
o 0
s OPTIMUM FOUND
v 1 -2 3 -4 -5 -6 -7 -8 9 10 11 12 -13 -14 -15 16 -17 18 19 20 -21 22 -23 24 25 -26 27 28 29 -30 31 32 33 -34 35 36 
/benchmark/cnf/maxsat/evaluation/ms/MaxSAT06/RAMSEY/ram_k3_n19.ra0.cnf
/benchmark/cnf/maxsat/evaluation/ms/MaxSAT06/RAMSEY/ram_k5_n18.ra0.cnf
o 7
o 6
o 5
problem nb.../benchmark/cnf/maxsat/evaluation/ms/MaxSAT06/RAMSEY/ram_k4_n18.ra0.cnf
/benchmark/cnf/maxsat/evaluation/ms/MaxSAT06/RAMSEY/ram_k4_n8.ra0.cnf
o 0
c Best Solution=0
c NB_MONO= 16, NB_UNIT= 1, NB_BRANCHE= 13, NB_BACK= 1 
c Program terminated in 0.000 seconds.
o 0
s OPTIMUM FOUND
v -1 -2 3 4 5 6 7 -8 9 10 11 12 13 14 -15 16 17 18 -19 20 -21 22 -23 -24 25 26 -27 28 
/benchmark/cnf/maxsat/evaluation/ms/MaxSAT06/RAMSEY/ram_k5_n11.ra0.cnf
o 0
c Best Solution=0
c NB_MONO= 31, NB_UNIT= 1, NB_BRANCHE= 25, NB_BACK= 1 
c Program terminated in 0.000 seconds.
o 0
s OPTIMUM FOUND
v 1 2 3 -4 -5 -6 -7 -8 -9 -10 -11 -12 -13 14 -15 16 17 18 19 20 -21 22 -23 24 25 26 -27 -28 -29 30 31 -32 33 -34 35 36 37 38 39 -40 -41 42 -43 44 -45 46 -47 -48 49 50 -51 52 53 -54 55 
/benchmark/cnf/maxsat/evaluation/ms/MaxSAT06/RAMSEY/ram_k4_n10.ra0.cnf
o 1
o 0
c Best Solution=0
c NB_MONO= 38, NB_UNIT= 1, NB_BRANCHE= 30, NB_BACK= 2 
c Program terminated in 0.000 seconds.
o 0
s OPTIMUM FOUND
v -1 2 3 4 5 -6 7 -8 9 10 11 12 -13 -14 15 16 17 18 19 -20 21 22 -23 -24 -25 26 27 -28 29 30 -31 32 -33 34 35 -36 -37 38 -39 40 41 42 43 44 -45 
/benchmark/cnf/maxsat/evaluation/ms/MaxSAT06/RAMSEY/ram_k3_n12.ra0.cnf
/benchmark/cnf/maxsat/evaluation/ms/MaxSAT06/RAMSEY/ram_k3_n6.ra0.cnf
o 0
c Best Solution=0
c NB_MONO= 8, NB_UNIT= 1, NB_BRANCHE= 8, NB_BACK= 1 
c Program terminated in 0.000 seconds.
o 0
s OPTIMUM FOUND
v -1 2 3 4 5 6 7 8 9 -10 11 12 13 14 -15 
/benchmark/cnf/maxsat/evaluation/ms/MaxSAT06/RAMSEY/ram_k5_n6.ra0.cnf
o 0
c Best Solution=0
c NB_MONO= 12, NB_UNIT= 1, NB_BRANCHE= 4, NB_BACK= 1 
c Program terminated in 0.000 seconds.
o 0
s OPTIMUM FOUND
v -1 2 3 4 5 6 7 8 9 -10 11 12 13 14 -15 
/benchmark/cnf/maxsat/evaluation/ms/MaxSAT06/RAMSEY/ram_k5_n20.ra0.cnf
o 16
problem nb.../benchmark/cnf/maxsat/evaluation/ms/MaxSAT06/RAMSEY/ram_k4_n19.ra0.cnf
/benchmark/cnf/maxsat/evaluation/ms/MaxSAT06/RAMSEY/ram_k3_n13.ra0.cnf
/benchmark/cnf/maxsat/evaluation/ms/MaxSAT06/RAMSEY/ram_k3_n15.ra0.cnf
/benchmark/cnf/maxsat/evaluation/ms/MaxSAT06/RAMSEY/ram_k5_n12.ra0.cnf
o 0
c Best Solution=0
c NB_MONO= 30, NB_UNIT= 1, NB_BRANCHE= 37, NB_BACK= 1 
c Program terminated in 0.000 seconds.
o 0
s OPTIMUM FOUND
v 1 -2 3 4 5 -6 7 -8 -9 -10 -11 12 -13 14 -15 16 -17 18 -19 20 -21 22 -23 24 25 -26 -27 28 -29 30 -31 32 33 -34 35 -36 37 -38 39 -40 -41 -42 43 -44 45 -46 -47 48 49 50 51 52 -53 54 55 56 57 58 -59 60 61 -62 63 64 -65 66 
/benchmark/cnf/maxsat/evaluation/ms/MaxSAT06/RAMSEY/ram_k5_n13.ra0.cnf
o 1
o 0
c Best Solution=0
c NB_MONO= 82, NB_UNIT= 1, NB_BRANCHE= 39, NB_BACK= 2 
c Program terminated in 0.000 seconds.
o 0
s OPTIMUM FOUND
v 1 -2 -3 4 -5 6 -7 8 -9 -10 -11 12 -13 14 15 -16 -17 18 -19 -20 21 -22 23 24 -25 -26 -27 28 -29 30 31 32 33 34 -35 36 37 38 39 -40 41 -42 43 -44 -45 -46 47 48 -49 -50 51 52 53 54 -55 -56 -57 58 -59 -60 61 -62 63 64 -65 66 -67 68 69 70 -71 72 73 -74 75 76 -77 78 
/benchmark/cnf/maxsat/evaluation/ms/MaxSAT06/RAMSEY/ram_k4_n12.ra0.cnf
o 2
o 1
o 0
c Best Solution=0
c NB_MONO= 81, NB_UNIT= 1, NB_BRANCHE= 62, NB_BACK= 3 
c Program terminated in 0.000 seconds.
o 0
s OPTIMUM FOUND
v -1 -2 3 4 5 6 -7 -8 -9 10 11 -12 -13 14 15 -16 17 18 19 20 21 22 23 24 -25 -26 27 28 29 30 31 -32 -33 34 35 -36 -37 -38 -39 40 -41 -42 43 44 -45 46 47 48 -49 50 -51 52 -53 54 -55 -56 -57 58 -59 -60 -61 -62 63 -64 65 66 
/benchmark/cnf/maxsat/evaluation/ms/MaxSAT06/RAMSEY/ram_k3_n7.ra0.cnf
o 0
c Best Solution=0
c NB_MONO= 8, NB_UNIT= 1, NB_BRANCHE= 14, NB_BACK= 1 
c Program terminated in 0.000 seconds.
o 0
s OPTIMUM FOUND
v -1 2 3 -4 5 -6 -7 8 9 -10 11 -12 -13 14 15 16 17 -18 -19 20 21 
/benchmark/cnf/maxsat/evaluation/ms/MaxSAT06/RAMSEY/ram_k5_n7.ra0.cnf
o 0
c Best Solution=0
c NB_MONO= 16, NB_UNIT= 1, NB_BRANCHE= 6, NB_BACK= 1 
c Program terminated in 0.000 seconds.
o 0
s OPTIMUM FOUND
v -1 -2 -3 4 5 6 -7 -8 9 10 11 12 -13 -14 15 16 17 18 -19 20 21 
/benchmark/cnf/maxsat/evaluation/ms/MaxSAT06/RAMSEY/ram_k5_n10.ra0.cnf
o 1
o 0
c Best Solution=0
c NB_MONO= 30, NB_UNIT= 1, NB_BRANCHE= 21, NB_BACK= 2 
c Program terminated in 0.000 seconds.
o 0
s OPTIMUM FOUND
v 1 -2 -3 4 5 -6 7 -8 -9 10 -11 12 -13 14 15 16 -17 18 -19 20 -21 22 -23 24 -25 26 -27 28 29 -30 31 -32 -33 -34 35 -36 -37 38 39 40 -41 42 43 44 45 
/benchmark/cnf/maxsat/evaluation/ms/MaxSAT06/RAMSEY/ram_k4_n14.ra0.cnf
o 7
o 6
o 5
o 4
o 3
o 2
o 1
o 0
c Best Solution=0
c NB_MONO= 105, NB_UNIT= 1, NB_BRANCHE= 115, NB_BACK= 18 
c Program terminated in 0.000 seconds.
o 0
s OPTIMUM FOUND
v -1 2 3 4 5 -6 -7 8 9 10 -11 -12 -13 14 15 -16 17 -18 -19 -20 21 -22 23 24 -25 26 -27 28 -29 30 -31 -32 -33 -34 35 36 37 -38 39 -40 -41 -42 43 44 -45 -46 -47 48 -49 50 51 -52 53 54 55 56 -57 58 59 -60 -61 -62 63 64 -65 66 -67 -68 -69 70 -71 72 73 -74 75 76 -77 78 79 -80 81 -82 -83 84 -85 86 87 88 89 -90 -91 
/benchmark/cnf/maxsat/evaluation/ms/MaxSAT06/RAMSEY/ram_k5_n14.ra0.cnf
o 5
o 4
o 3
o 2
o 1
o 0
c Best Solution=0
c NB_MONO= 210, NB_UNIT= 1, NB_BRANCHE= 151, NB_BACK= 6 
c Program terminated in 0.010 seconds.
o 0
s OPTIMUM FOUND
v 1 2 3 -4 5 -6 -7 8 -9 10 -11 -12 -13 14 -15 16 -17 -18 19 -20 -21 22 -23 24 -25 26 -27 -28 29 -30 31 -32 -33 34 -35 36 -37 38 -39 40 -41 -42 -43 -44 45 46 47 -48 -49 -50 51 -52 53 54 55 -56 -57 -58 59 -60 -61 62 -63 64 65 66 67 -68 69 70 71 -72 73 74 75 -76 77 -78 79 -80 -81 82 -83 -84 -85 86 -87 -88 89 -90 91 
/benchmark/cnf/maxsat/evaluation/ms/MaxSAT06/RAMSEY/ram_k3_n20.ra0.cnf
/benchmark/cnf/maxsat/evaluation/ms/MaxSAT06/RAMSEY/ram_k5_n19.ra0.cnf
o 11
problem nb.../benchmark/cnf/maxsat/evaluation/ms/MaxSAT06/RAMSEY/ram_k4_n7.ra0.cnf
o 0
c Best Solution=0
c NB_MONO= 13, NB_UNIT= 1, NB_BRANCHE= 9, NB_BACK= 1 
c Program terminated in 0.000 seconds.
o 0
s OPTIMUM FOUND
v -1 2 3 4 5 6 7 -8 9 10 11 12 13 14 -15 -16 -17 18 -19 20 21 
/benchmark/cnf/maxsat/evaluation/ms/MaxSAT06/RAMSEY/ram_k3_n11.ra0.cnf
/benchmark/cnf/maxsat/evaluation/ms/MaxSAT06/RAMSEY/ram_k4_n9.ra0.cnf
o 0
c Best Solution=0
c NB_MONO= 18, NB_UNIT= 1, NB_BRANCHE= 18, NB_BACK= 1 
c Program terminated in 0.000 seconds.
o 0
s OPTIMUM FOUND
v -1 -2 -3 4 5 6 7 8 -9 -10 11 12 13 14 15 16 17 18 -19 20 21 -22 -23 24 -25 26 -27 -28 29 30 31 -32 33 34 -35 -36 
/benchmark/cnf/maxsat/evaluation/ms/MaxSAT06/RAMSEY/ram_k4_n6.ra0.cnf
o 0
c Best Solution=0
c NB_MONO= 9, NB_UNIT= 1, NB_BRANCHE= 7, NB_BACK= 1 
c Program terminated in 0.000 seconds.
o 0
s OPTIMUM FOUND
v -1 2 3 -4 -5 -6 7 8 9 10 11 12 13 14 -15 
/benchmark/cnf/maxsat/evaluation/ms/MaxSAT06/RAMSEY/ram_k3_n16.ra0.cnf
/benchmark/cnf/maxsat/evaluation/ms/MaxSAT06/RAMSEY/ram_k3_n5.ra0.cnf
o 0
c Best Solution=0
c NB_MONO= 5, NB_UNIT= 1, NB_BRANCHE= 6, NB_BACK= 1 
c Program terminated in 0.000 seconds.
o 0
s OPTIMUM FOUND
v -1 2 -3 4 -5 6 7 8 9 10 
/benchmark/cnf/maxsat/evaluation/ms/MaxSAT06/RAMSEY/ram_k5_n15.ra0.cnf
o 3
o 2
o 1
o 0
c Best Solution=0
c NB_MONO= 168, NB_UNIT= 1, NB_BRANCHE= 105, NB_BACK= 4 
c Program terminated in 0.010 seconds.
o 0
s OPTIMUM FOUND
v -1 2 3 -4 5 -6 7 -8 -9 10 11 12 13 -14 15 -16 -17 18 19 20 -21 22 23 24 -25 26 -27 -28 -29 -30 -31 32 33 -34 -35 -36 37 38 -39 -40 -41 42 -43 44 45 46 47 48 49 -50 -51 52 53 54 -55 56 -57 58 59 60 61 -62 63 -64 65 -66 -67 68 69 -70 -71 -72 -73 74 -75 -76 77 -78 -79 80 81 -82 -83 -84 -85 86 87 88 89 -90 91 92 93 94 -95 -96 -97 -98 99 -100 -101 102 -103 104 105 
/benchmark/cnf/maxsat/evaluation/ms/MaxSAT06/RAMSEY/ram_k5_n8.ra0.cnf
o 0
c Best Solution=0
c NB_MONO= 22, NB_UNIT= 1, NB_BRANCHE= 7, NB_BACK= 1 
c Program terminated in 0.000 seconds.
o 0
s OPTIMUM FOUND
v 1 -2 -3 -4 -5 6 7 -8 -9 10 11 12 13 14 -15 -16 17 18 19 20 21 22 -23 24 25 26 27 -28 
/benchmark/cnf/maxsat/evaluation/ms/MaxSAT06/RAMSEY/ram_k3_n8.ra0.cnf
o 3
o 2
o 1
o 0
c Best Solution=0
c NB_MONO= 6, NB_UNIT= 1, NB_BRANCHE= 22, NB_BACK= 5 
c Program terminated in 0.000 seconds.
o 0
s OPTIMUM FOUND
v -1 -2 3 4 5 6 -7 8 -9 10 11 -12 13 14 -15 -16 17 18 19 -20 21 -22 23 -24 -25 26 27 28 
/benchmark/cnf/maxsat/evaluation/ms/MaxSAT06/RAMSEY/ram_k3_n17.ra0.cnf
/benchmark/cnf/maxsat/evaluation/ms/MaxSAT06/RAMSEY/ram_k3_n10.ra0.cnf
o 6
o 5
o 4
c Best Solution=4
c NB_MONO= 1219063, NB_UNIT= 1, NB_BRANCHE= 20485165, NB_BACK= 11100831 
c Program terminated in 170.810 seconds.
o 4
s OPTIMUM FOUND
v -1 -2 3 4 -5 6 7 8 -9 -10 -11 12 13 14 15 16 17 18 -19 20 -21 22 23 24 -25 -26 27 -28 29 30 31 32 -33 34 -35 -36 37 -38 39 40 -41 42 43 -44 -45 
/benchmark/cnf/maxsat/evaluation/ms/MaxSAT06/RAMSEY/ram_k5_n17.ra0.cnf
o 4
problem nb.../benchmark/cnf/maxsat/evaluation/ms/MaxSAT06/RAMSEY/ram_k4_n11.ra0.cnf
o 1
o 0
c Best Solution=0
c NB_MONO= 45, NB_UNIT= 1, NB_BRANCHE= 39, NB_BACK= 2 
c Program terminated in 0.000 seconds.
o 0
s OPTIMUM FOUND
v -1 2 3 4 -5 6 -7 -8 9 10 -11 12 13 -14 15 16 17 -18 -19 20 21 22 -23 24 25 26 -27 -28 29 -30 31 -32 -33 -34 -35 36 -37 38 -39 40 41 -42 -43 44 45 46 -47 48 -49 50 51 -52 -53 54 55 
/benchmark/cnf/maxsat/evaluation/ms/MaxSAT06/RAMSEY/ram_k4_n15.ra0.cnf
o 10
o 9
o 8
o 7
o 6
o 5
o 4
o 3
o 2
o 1
o 0
c Best Solution=0
c NB_MONO= 145, NB_UNIT= 1, NB_BRANCHE= 225, NB_BACK= 39 
c Program terminated in 0.010 seconds.
o 0
s OPTIMUM FOUND
v -1 2 3 -4 5 6 7 -8 -9 -10 -11 12 13 14 15 -16 17 18 19 20 -21 22 -23 -24 -25 26 -27 28 -29 30 31 -32 33 34 -35 36 -37 -38 -39 -40 -41 -42 -43 44 45 46 -47 48 -49 50 -51 52 -53 -54 55 -56 57 58 59 60 -61 62 -63 -64 -65 66 -67 68 -69 70 71 -72 73 -74 -75 -76 77 -78 -79 80 -81 82 -83 -84 -85 86 87 -88 89 90 -91 -92 93 -94 95 96 97 -98 -99 100 101 -102 -103 -104 105 
/benchmark/cnf/maxsat/evaluation/ms/MaxSAT06/RAMSEY/ram_k4_n20.ra0.cnf
/benchmark/cnf/maxsat/evaluation/ms/MaxSAT06/RAMSEY/ram_k4_n17.ra0.cnf
/benchmark/cnf/maxsat/evaluation/ms/MaxSAT06/RAMSEY/ram_k4_n13.ra0.cnf
o 3
o 2
o 1
o 0
c Best Solution=0
c NB_MONO= 75, NB_UNIT= 1, NB_BRANCHE= 84, NB_BACK= 4 
c Program terminated in 0.000 seconds.
o 0
s OPTIMUM FOUND
v -1 -2 3 -4 5 -6 -7 8 9 -10 11 12 -13 14 15 16 17 -18 -19 20 21 -22 -23 24 -25 -26 -27 28 29 30 31 32 -33 -34 -35 36 37 -38 39 -40 41 -42 -43 44 -45 46 47 48 49 -50 -51 52 -53 -54 55 56 57 58 59 -60 -61 -62 63 64 -65 -66 -67 68 -69 -70 71 -72 -73 -74 75 76 77 -78 
/benchmark/cnf/maxsat/evaluation/ms/MaxSAT06/RAMSEY/ram_k5_n16.ra0.cnf
o 8
o 7
o 6
o 5
o 4
o 3
o 2
o 1
o 0
problem nb.../benchmark/cnf/maxsat/evaluation/ms/MaxSAT06/RAMSEY/ram_k4_n5.ra0.cnf
o 0
c Best Solution=0
c NB_MONO= 7, NB_UNIT= 1, NB_BRANCHE= 4, NB_BACK= 1 
c Program terminated in 0.000 seconds.
o 0
s OPTIMUM FOUND
v -1 -2 3 4 -5 6 7 8 9 10 
